Route 1: 0 81 90 9 51 36 47 25 85 0
Route 2: 0 7 77 32 93 74 72 3 16 0
Route 3: 0 83 62 22 42 53 15 0
Route 4: 0 35 79 68 97 73 39 41 0
Route 5: 0 26 69 55 57 54 8 87 96 37 18 61 0
Route 6: 0 76 80 63 60 28 99 95 58 82 20 0
Route 7: 0 2 27 13 100 84 29 21 45 31 67 0
Route 8: 0 49 17 23 34 24 48 0
Route 9: 0 94 6 33 46 66 86 71 56 0
Route 10: 0 75 70 5 52 1 10 0
Route 11: 0 14 40 92 30 4 12 88 65 59 78 98 19 0
Route 12: 0 89 50 44 91 11 43 64 38 0
